
Gurobi 10.0.1 (mac64[arm]) logging started Fri Mar 29 14:31:34 2024

Set parameter LogFile to value "/Users/deniserings/Documents/zib/s-bahn-data/scripts/DeniseMA/processed/BGAS_BKW/original/LP_based/BGAS_BKW_subgradient_202403291428act_.log"
Gurobi Optimizer version 10.0.1 build v10.0.1rc0 (mac64[arm])

CPU model: Apple M2
Thread count: 8 physical cores, 8 logical processors, using up to 8 threads

Optimize a model with 2101 rows, 1158 columns and 7604 nonzeros
Model fingerprint: 0x16765464
Variable types: 557 continuous, 601 integer (170 binary)
Coefficient statistics:
  Matrix range     [1e+00, 4e+02]
  Objective range  [1e+00, 4e+02]
  Bounds range     [1e+00, 2e+02]
  RHS range        [1e+00, 5e+02]
Found heuristic solution: objective 169.0000000
Presolve removed 906 rows and 352 columns
Presolve time: 0.01s
Presolved: 1195 rows, 806 columns, 5288 nonzeros
Variable types: 302 continuous, 504 integer (504 binary)
Found heuristic solution: objective 165.0000000

Root relaxation: objective 1.490000e+02, 114 iterations, 0.00 seconds (0.00 work units)

    Nodes    |    Current Node    |     Objective Bounds      |     Work
 Expl Unexpl |  Obj  Depth IntInf | Incumbent    BestBd   Gap | It/Node Time

     0     0  149.00000    0    8  165.00000  149.00000  9.70%     -    0s
H    0     0                     161.0000000  149.00000  7.45%     -    0s
H    0     0                     155.0000000  149.00000  3.87%     -    0s
H    0     0                     151.0000000  149.00000  1.32%     -    0s
     0     0  149.00000    0    1  151.00000  149.00000  1.32%     -    0s
     0     0  149.00000    0    2  151.00000  149.00000  1.32%     -    0s
H    0     0                     149.0000000  149.00000  0.00%     -    0s
     0     0  149.00000    0    2  149.00000  149.00000  0.00%     -    0s

Explored 1 nodes (694 simplex iterations) in 0.04 seconds (0.04 work units)
Thread count was 8 (of 8 available processors)

Solution count 6: 149 151 155 ... 169

Optimal solution found (tolerance 1.00e-04)
Best objective 1.490000000000e+02, best bound 1.490000000000e+02, gap 0.0000%

User-callback calls 523, time in user-callback 0.00 sec

Statistics for modelBGAS_BKW:
  Linear constraint matrix    : 2101 Constrs, 1158 Vars, 7604 NZs
  Variable types              : 557 Continuous,
601 Integer (170 Binary)
  Matrix coefficient range    : [ 1, 388 ]
  Objective coefficient range : [ 1, 386 ]
  Variable bound range        : [ 1, 199 ]
  RHS coefficient range       : [ 1, 549 ]

Gurobi 10.0.1 (mac64[arm]) logging started Fri Mar 29 14:31:35 2024

Set parameter LogFile to value "/Users/deniserings/Documents/zib/s-bahn-data/scripts/DeniseMA/processed/BGAS_BKW/original/LP_based/BGAS_BKW_subgradient_202403291428act_.log"
Gurobi Optimizer version 10.0.1 build v10.0.1rc0 (mac64[arm])

CPU model: Apple M2
Thread count: 8 physical cores, 8 logical processors, using up to 8 threads

Optimize a model with 2165 rows, 1158 columns and 7742 nonzeros
Model fingerprint: 0xdf3a8131
Variable types: 557 continuous, 601 integer (170 binary)
Coefficient statistics:
  Matrix range     [1e+00, 4e+02]
  Objective range  [1e+00, 5e+03]
  Bounds range     [1e+00, 2e+02]
  RHS range        [1e+00, 5e+02]

User MIP start produced solution with objective 8427 (0.00s)
Loaded user MIP start with objective 8427

Presolve removed 1081 rows and 395 columns
Presolve time: 0.01s
Presolved: 1084 rows, 763 columns, 4525 nonzeros
Variable types: 286 continuous, 477 integer (477 binary)

Root relaxation: objective 3.103580e+03, 322 iterations, 0.00 seconds (0.00 work units)

    Nodes    |    Current Node    |     Objective Bounds      |     Work
 Expl Unexpl |  Obj  Depth IntInf | Incumbent    BestBd   Gap | It/Node Time

     0     0 3103.58025    0   24 8427.00000 3103.58025  63.2%     -    0s
H    0     0                    3689.3703704 3103.58025  15.9%     -    0s
H    0     0                    3462.5679012 3103.58025  10.4%     -    0s
     0     0 3103.58025    0   54 3462.56790 3103.58025  10.4%     -    0s
H    0     0                    3412.7777778 3103.58025  9.06%     -    0s
H    0     0                    3380.5679012 3103.58025  8.19%     -    0s
     0     0 3103.58025    0   52 3380.56790 3103.58025  8.19%     -    0s
     0     0 3103.58025    0   19 3380.56790 3103.58025  8.19%     -    0s
     0     0 3103.58025    0   19 3380.56790 3103.58025  8.19%     -    0s
     0     0 3103.58025    0   13 3380.56790 3103.58025  8.19%     -    0s
     0     0 3103.58025    0   24 3380.56790 3103.58025  8.19%     -    0s
H    0     0                    3310.3703704 3103.58025  6.25%     -    0s
     0     0 3103.58025    0   18 3310.37037 3103.58025  6.25%     -    0s
     0     0 3103.58025    0   19 3310.37037 3103.58025  6.25%     -    0s
     0     0 3103.58025    0    7 3310.37037 3103.58025  6.25%     -    0s
     0     0 3103.58025    0   42 3310.37037 3103.58025  6.25%     -    0s
     0     0 3103.58025    0    8 3310.37037 3103.58025  6.25%     -    0s
H    0     0                    3289.3703704 3103.58025  5.65%     -    0s
     0     0 3103.58025    0   11 3289.37037 3103.58025  5.65%     -    0s
H    0     0                    3241.9753086 3103.58025  4.27%     -    0s
     0     0 3103.58025    0    5 3241.97531 3103.58025  4.27%     -    0s
     0     0 3103.58025    0    7 3241.97531 3103.58025  4.27%     -    0s
     0     0 3103.58025    0    8 3241.97531 3103.58025  4.27%     -    0s
     0     0 3103.58025    0    8 3241.97531 3103.58025  4.27%     -    0s
     0     2 3103.58025    0    8 3241.97531 3103.58025  4.27%     -    0s
H  214   224                    3235.9753086 3103.58025  4.09%  24.9    0s
H  244   313                    3230.9753086 3103.58025  3.94%  24.2    0s
H  290   313                    3175.9753086 3103.58025  2.28%  23.8    0s
H  396   402                    3161.9753086 3103.58025  1.85%  21.9    0s
H  607   524                    3146.9753086 3103.58025  1.38%  19.8    0s
H 1084   611                    3132.7777778 3103.58025  0.93%  17.8    0s
H 1626   605                    3123.7777778 3103.58025  0.65%  16.7    0s
H 2144   822                    3118.5802469 3103.58025  0.48%  17.1    0s
* 2170   783              57    3103.5802469 3103.58025  0.00%  17.0    0s

Cutting planes:
  Learned: 4
  Gomory: 8
  Cover: 16
  Implied bound: 2
  Clique: 9
  MIR: 1
  Flow cover: 16
  Network: 2
  RLT: 1

Explored 2232 nodes (41827 simplex iterations) in 0.92 seconds (0.86 work units)
Thread count was 8 (of 8 available processors)

Solution count 10: 3103.58 3118.58 3123.78 ... 3241.98

Optimal solution found (tolerance 1.00e-04)
Best objective 3.103580246914e+03, best bound 3.103580246914e+03, gap 0.0000%

User-callback calls 5404, time in user-callback 0.01 sec

Statistics for modelBGAS_BKW:
  Linear constraint matrix    : 2165 Constrs, 1158 Vars, 7742 NZs
  Variable types              : 557 Continuous,
601 Integer (170 Binary)
  Matrix coefficient range    : [ 1, 388 ]
  Objective coefficient range : [ 1, 5125.68 ]
  Variable bound range        : [ 1, 199 ]
  RHS coefficient range       : [ 1, 549 ]

Gurobi 10.0.1 (mac64[arm]) logging started Fri Mar 29 14:31:36 2024

Set parameter LogFile to value "/Users/deniserings/Documents/zib/s-bahn-data/scripts/DeniseMA/processed/BGAS_BKW/original/LP_based/BGAS_BKW_subgradient_202403291428act_.log"
Gurobi Optimizer version 10.0.1 build v10.0.1rc0 (mac64[arm])

CPU model: Apple M2
Thread count: 8 physical cores, 8 logical processors, using up to 8 threads

Optimize a model with 2238 rows, 1158 columns and 7912 nonzeros
Model fingerprint: 0xe42e2eba
Variable types: 557 continuous, 601 integer (170 binary)
Coefficient statistics:
  Matrix range     [1e+00, 4e+02]
  Objective range  [1e+00, 7e+03]
  Bounds range     [1e+00, 2e+02]
  RHS range        [1e+00, 5e+02]

User MIP start produced solution with objective 5472.42 (0.00s)
Loaded user MIP start with objective 5472.42

Presolve removed 1354 rows and 543 columns
Presolve time: 0.01s
Presolved: 884 rows, 615 columns, 3420 nonzeros
Variable types: 238 continuous, 377 integer (377 binary)

Root relaxation: objective 4.288000e+03, 301 iterations, 0.00 seconds (0.00 work units)

    Nodes    |    Current Node    |     Objective Bounds      |     Work
 Expl Unexpl |  Obj  Depth IntInf | Incumbent    BestBd   Gap | It/Node Time

     0     0 4288.00000    0   15 5472.41975 4288.00000  21.6%     -    0s
H    0     0                    5361.8148148 4288.00000  20.0%     -    0s
     0     0 4288.00000    0   40 5361.81481 4288.00000  20.0%     -    0s
     0     0 4288.00000    0   36 5361.81481 4288.00000  20.0%     -    0s
H    0     0                    4957.0000000 4288.00000  13.5%     -    0s
     0     0 4288.00000    0   14 4957.00000 4288.00000  13.5%     -    0s
     0     0 4288.00000    0   16 4957.00000 4288.00000  13.5%     -    0s
     0     0 4288.00000    0   20 4957.00000 4288.00000  13.5%     -    0s
     0     0 4288.00000    0   50 4957.00000 4288.00000  13.5%     -    0s
     0     0 4288.00000    0   12 4957.00000 4288.00000  13.5%     -    0s
     0     0 4288.00000    0   19 4957.00000 4288.00000  13.5%     -    0s
     0     0 4288.00000    0   18 4957.00000 4288.00000  13.5%     -    0s
     0     0 4288.00000    0   18 4957.00000 4288.00000  13.5%     -    0s
     0     2 4288.00000    0    7 4957.00000 4288.00000  13.5%     -    0s
H   37    40                    4927.3024691 4290.85455  12.9%  19.1    0s
H  122   142                    4914.3024691 4290.85455  12.7%  13.5    0s
H  123   142                    4904.3024691 4290.85455  12.5%  13.5    0s
H  175   204                    4880.3024691 4290.85455  12.1%  12.1    0s
H  175   204                    4858.3024691 4290.85455  11.7%  12.1    0s
H  263   258                    4857.3024691 4290.85455  11.7%  10.7    0s
H  264   258                    4820.6049383 4290.85455  11.0%  10.7    0s
H 1345  1096                    4812.6049383 4324.30247  10.1%  10.0    0s
H 1514  1076                    4793.6049383 4324.30247  9.79%  10.0    0s
H 1625  1061                    4792.6049383 4324.30247  9.77%  10.1    0s
H30277 14196                    4792.6049376 4328.45888  9.68%  11.0    4s
 35137 15324 4414.96336   38   36 4792.60494 4356.14833  9.11%  11.3    5s
*73520 20146              67    4792.2098765 4422.08133  7.72%  11.8    7s
H73897 20166                    4791.9074074 4422.42299  7.71%  11.8    7s
H73897 20154                    4791.2098765 4422.42299  7.70%  11.8    7s
H73898 20132                    4790.2098765 4422.42299  7.68%  11.8    7s
 105107 33368 4737.04121   59   17 4790.20988 4442.34190  7.26%  11.9   10s
H117361 37514                    4780.2098765 4448.28063  6.94%  11.9   10s
H131131 42698                    4779.9074074 4453.00295  6.84%  11.9   12s
 167362 55575 4571.61854   46   55 4779.90741 4462.69504  6.64%  11.9   15s
 229574 77273 4530.12188   43   45 4779.90741 4473.73301  6.41%  11.9   20s

Cutting planes:
  Learned: 24
  Gomory: 140
  Cover: 18
  Implied bound: 10
  Clique: 5
  MIR: 44
  Flow cover: 116
  Zero half: 1
  Network: 3
  RLT: 18
  Relax-and-lift: 4

Explored 230248 nodes (2743655 simplex iterations) in 20.06 seconds (20.75 work units)
Thread count was 8 (of 8 available processors)

Solution count 10: 4779.91 4780.21 4790.21 ... 4812.6

Solve interrupted
Best objective 4.779907407407e+03, best bound 4.473844556770e+03, gap 6.4031%

User-callback calls 466961, time in user-callback 0.36 sec

Statistics for modelBGAS_BKW:
  Linear constraint matrix    : 2238 Constrs, 1158 Vars, 7912 NZs
  Variable types              : 557 Continuous,
601 Integer (170 Binary)
  Matrix coefficient range    : [ 1, 388 ]
  Objective coefficient range : [ 1, 7494.52 ]
  Variable bound range        : [ 1, 199 ]
  RHS coefficient range       : [ 1, 549 ]

Gurobi 10.0.1 (mac64[arm]) logging started Fri Mar 29 14:31:56 2024

Set parameter LogFile to value "/Users/deniserings/Documents/zib/s-bahn-data/scripts/DeniseMA/processed/BGAS_BKW/original/LP_based/BGAS_BKW_subgradient_202403291428act_.log"
Gurobi Optimizer version 10.0.1 build v10.0.1rc0 (mac64[arm])

CPU model: Apple M2
Thread count: 8 physical cores, 8 logical processors, using up to 8 threads

Optimize a model with 2243 rows, 1158 columns and 7922 nonzeros
Model fingerprint: 0xcd709b52
Variable types: 557 continuous, 601 integer (170 binary)
Coefficient statistics:
  Matrix range     [1e+00, 4e+02]
  Objective range  [1e+00, 7e+03]
  Bounds range     [1e+00, 2e+02]
  RHS range        [1e+00, 5e+02]

User MIP start produced solution with objective 3796.09 (0.00s)
Loaded user MIP start with objective 3796.09

Presolve removed 1435 rows and 603 columns
Presolve time: 0.01s
Presolved: 808 rows, 555 columns, 3218 nonzeros
Variable types: 222 continuous, 333 integer (333 binary)

Root relaxation: objective 3.439093e+03, 239 iterations, 0.00 seconds (0.00 work units)

    Nodes    |    Current Node    |     Objective Bounds      |     Work
 Expl Unexpl |  Obj  Depth IntInf | Incumbent    BestBd   Gap | It/Node Time

     0     0 3439.09259    0   20 3796.09259 3439.09259  9.40%     -    0s
     0     0 3439.09259    0   64 3796.09259 3439.09259  9.40%     -    0s
     0     0 3439.09259    0   62 3796.09259 3439.09259  9.40%     -    0s
     0     0 3439.09259    0   19 3796.09259 3439.09259  9.40%     -    0s
     0     0 3439.09259    0   26 3796.09259 3439.09259  9.40%     -    0s
     0     0 3439.09259    0   13 3796.09259 3439.09259  9.40%     -    0s
     0     0 3439.21282    0   15 3796.09259 3439.21282  9.40%     -    0s
     0     0 3439.21282    0   15 3796.09259 3439.21282  9.40%     -    0s
     0     0 3439.21282    0   22 3796.09259 3439.21282  9.40%     -    0s
     0     0 3439.21282    0   22 3796.09259 3439.21282  9.40%     -    0s
     0     0 3439.21282    0   29 3796.09259 3439.21282  9.40%     -    0s
     0     0 3439.21282    0   32 3796.09259 3439.21282  9.40%     -    0s
     0     0 3439.21282    0   31 3796.09259 3439.21282  9.40%     -    0s
     0     0 3439.21282    0   16 3796.09259 3439.21282  9.40%     -    0s
     0     2 3439.21282    0   15 3796.09259 3439.21282  9.40%     -    0s
H30549 11823                    3796.0925918 3469.09259  8.61%  12.1    4s
 40259 11327     cutoff   42      3796.09259 3599.09259  5.19%  12.0    5s
 109269  5956     cutoff   38      3796.09259 3711.09259  2.24%  11.0   10s
 172611  4238 3747.09259   42   30 3796.09259 3743.09259  1.40%  10.3   15s

Cutting planes:
  Learned: 27
  Gomory: 105
  Cover: 15
  Implied bound: 7
  Clique: 1
  MIR: 23
  StrongCG: 1
  Flow cover: 59
  Zero half: 2
  Network: 2
  RLT: 3

Explored 212729 nodes (2223504 simplex iterations) in 18.98 seconds (18.66 work units)
Thread count was 8 (of 8 available processors)

Solution count 3: 3796.09 3796.09 3796.09 

Optimal solution found (tolerance 1.00e-04)
Best objective 3.796092592593e+03, best bound 3.796092591809e+03, gap 0.0000%

User-callback calls 434799, time in user-callback 0.32 sec

Statistics for modelBGAS_BKW:
  Linear constraint matrix    : 2243 Constrs, 1158 Vars, 7922 NZs
  Variable types              : 557 Continuous,
601 Integer (170 Binary)
  Matrix coefficient range    : [ 1, 388 ]
  Objective coefficient range : [ 1, 6510.7 ]
  Variable bound range        : [ 1, 199 ]
  RHS coefficient range       : [ 1, 549 ]

Gurobi 10.0.1 (mac64[arm]) logging started Fri Mar 29 14:32:15 2024

Set parameter LogFile to value "/Users/deniserings/Documents/zib/s-bahn-data/scripts/DeniseMA/processed/BGAS_BKW/original/LP_based/BGAS_BKW_subgradient_202403291428act_.log"
Gurobi Optimizer version 10.0.1 build v10.0.1rc0 (mac64[arm])

CPU model: Apple M2
Thread count: 8 physical cores, 8 logical processors, using up to 8 threads

Optimize a model with 2243 rows, 1158 columns and 7922 nonzeros
Model fingerprint: 0xcb1859f8
Variable types: 557 continuous, 601 integer (170 binary)
Coefficient statistics:
  Matrix range     [1e+00, 4e+02]
  Objective range  [1e+00, 2e+04]
  Bounds range     [1e+00, 2e+02]
  RHS range        [1e+00, 5e+02]

User MIP start produced solution with objective 14618.1 (0.00s)
Loaded user MIP start with objective 14618.1

Presolve removed 1433 rows and 601 columns
Presolve time: 0.01s
Presolved: 810 rows, 557 columns, 3225 nonzeros
Variable types: 222 continuous, 335 integer (335 binary)

Root relaxation: objective 4.288000e+03, 275 iterations, 0.00 seconds (0.00 work units)

    Nodes    |    Current Node    |     Objective Bounds      |     Work
 Expl Unexpl |  Obj  Depth IntInf | Incumbent    BestBd   Gap | It/Node Time

     0     0 4288.00000    0   33 14618.0556 4288.00000  70.7%     -    0s
H    0     0                    8232.6851852 4288.00000  47.9%     -    0s
     0     0 4288.00000    0   60 8232.68519 4288.00000  47.9%     -    0s
H    0     0                    8220.6851852 4288.00000  47.8%     -    0s
     0     0 4288.00000    0   58 8220.68519 4288.00000  47.8%     -    0s
H    0     0                    5368.0000000 4288.00000  20.1%     -    0s
     0     0 4288.00000    0   13 5368.00000 4288.00000  20.1%     -    0s
H    0     0                    5354.0000000 4288.00000  19.9%     -    0s
H    0     0                    5110.0000000 4288.00000  16.1%     -    0s
     0     0 4288.00000    0   16 5110.00000 4288.00000  16.1%     -    0s
H    0     0                    5036.0000000 4288.00000  14.9%     -    0s
     0     0 4288.00000    0   22 5036.00000 4288.00000  14.9%     -    0s
     0     0 4288.00000    0   33 5036.00000 4288.00000  14.9%     -    0s
H    0     0                    5013.0000000 4288.00000  14.5%     -    0s
     0     0 4288.00000    0   27 5013.00000 4288.00000  14.5%     -    0s
     0     0 4288.00000    0   21 5013.00000 4288.00000  14.5%     -    0s
H    0     0                    4989.0000000 4288.00000  14.1%     -    0s
H    0     0                    4933.0000000 4288.00000  13.1%     -    0s
     0     0 4540.00000    0    8 4933.00000 4540.00000  7.97%     -    0s
     0     0 4540.00000    0   12 4933.00000 4540.00000  7.97%     -    0s
     0     0 4540.00000    0   11 4933.00000 4540.00000  7.97%     -    0s
     0     0 4540.00000    0    7 4933.00000 4540.00000  7.97%     -    0s
     0     0 4540.00000    0    7 4933.00000 4540.00000  7.97%     -    0s
H    0     0                    4927.0000000 4540.00000  7.85%     -    0s
H    0     0                    4914.0000000 4540.00000  7.61%     -    0s
     0     0 4540.00000    0    7 4914.00000 4540.00000  7.61%     -    0s
     0     0 4540.00000    0    6 4914.00000 4540.00000  7.61%     -    0s
     0     0 4540.00000    0    7 4914.00000 4540.00000  7.61%     -    0s
     0     0 4540.00000    0    6 4914.00000 4540.00000  7.61%     -    0s
     0     0 4540.00000    0    8 4914.00000 4540.00000  7.61%     -    0s
     0     0 4540.00000    0   10 4914.00000 4540.00000  7.61%     -    0s
     0     0 4540.00000    0    8 4914.00000 4540.00000  7.61%     -    0s
     0     2 4540.00000    0    8 4914.00000 4540.00000  7.61%     -    0s

Cutting planes:
  Learned: 27
  Gomory: 13
  Cover: 130
  Implied bound: 24
  MIR: 51
  Flow cover: 49
  Inf proof: 13
  Network: 4
  RLT: 7
  Relax-and-lift: 3

Explored 13959 nodes (171214 simplex iterations) in 1.41 seconds (1.10 work units)
Thread count was 8 (of 8 available processors)

Solution count 10: 4914 4927 4933 ... 8220.69

Optimal solution found (tolerance 1.00e-04)
Best objective 4.914000000000e+03, best bound 4.914000000000e+03, gap 0.0000%

User-callback calls 29013, time in user-callback 0.03 sec

Statistics for modelBGAS_BKW:
  Linear constraint matrix    : 2243 Constrs, 1158 Vars, 7922 NZs
  Variable types              : 557 Continuous,
601 Integer (170 Binary)
  Matrix coefficient range    : [ 1, 388 ]
  Objective coefficient range : [ 1, 17332.7 ]
  Variable bound range        : [ 1, 199 ]
  RHS coefficient range       : [ 1, 549 ]
